NAME : XML100_2261_22
DIMENSION : 101
NB_CLUSTERS : 4
CLUSTERING_ALG : KMedoids
CLUSTERING_PARAMS : k(3)
CLUSTERS
1 0
2 1 6 7 8 11 12 14 16 18 19 20 21 22 25 26 27 28 29 30 32 35 36 39 42 43 44 46 47 49 50 51 52 55 62 66 69 70 71 74 75 76 77 78 82 83 84 85 86 87 88 89 90 91 94 95 96 97 100
3 3 4 10 17 24 31 34 37 45 54 58 59 63 67 68 79 80 81 92 93 98
4 2 5 9 13 15 23 33 38 40 41 48 53 56 57 60 61 64 65 72 73 99
EOF